Total weight: 1124.2801371825742
Route 1: 0 26 12 80 68 0 
Route 2: 0 52 7 88 62 10 31 27 0 
Route 3: 0 95 92 98 100 14 38 44 91 37 0 
Route 4: 0 1 30 20 32 64 49 0 
Route 5: 0 4 25 55 39 67 23 56 53 0 
Route 6: 0 2 57 15 43 42 87 97 13 58 0 
Route 7: 0 69 70 90 63 11 19 48 47 36 46 0 
Route 8: 0 40 21 73 72 74 75 22 41 0 
Route 9: 0 18 82 8 17 86 16 61 85 93 0 
Route 10: 0 54 24 29 34 35 71 65 66 0 
Route 11: 0 28 76 33 51 9 81 78 79 3 77 50 0 
Route 12: 0 89 5 84 45 83 60 0 
Route 13: 0 6 96 99 59 94 0 
